NAME : morphed20-5-31
COMMENT : Generated using the function morphInstances from the R-package netgen (Bossek,2015) - Number of clusters: 5 Alpha: 0.5
TYPE : TSP
DIMENSION : 20
EDGE_WEIGHT_TYPE : EUC_2D
NODE_COORD_SECTION
1 51.1157661602 15.3979184799
2 76.6545323138 75.5804299744
3 34.6045179614 41.2737643798
4 34.1908210325 48.8793736683
5 72.8082880251 78.1452131516
6 57.4881274276 3.0355526217
7 82.7394568742 11.807688345
8 17.4032768213 75.7740770805
9 90.4213401936 8.2704974399
10 29.23699103 11.4716324644
11 36.1114500416 20.9623829958
12 69.3497792513 78.1980417436
13 65.8567212123 30.3199742867
14 7.996413735 65.6113917023
15 77.4383650689 86.4090328669
16 13.6477348874 75.8416898322
17 14.7595411009 55.7018678054
18 47.7600303129 22.0869408081
19 24.762417344 31.6009999133
20 17.685483868 36.1910641471
EOF
